Reading model...
...model read.
creating competitive generators file...
...competitive generators recorded.
Loading data...
.. real-time data read.
Compiling instance...
...instance created.
Creating Offer Mitigation (model will solve as dispatch if TRUE)...
...storage offer mitigation file created
Converting model to MPEC...
...converted
NOTE: initial MIP solve with only storage competitive to get feasible solution
Solving...

Welcome to IBM(R) ILOG(R) CPLEX(R) Interactive Optimizer 12.9.0.0
  with Simplex, Mixed Integer & Barrier Optimizers
5725-A06 5725-A29 5724-Y48 5724-Y49 5724-Y54 5724-Y55 5655-Y21
Copyright IBM Corp. 1988, 2019.  All Rights Reserved.

Type 'help' for a list of available commands.
Type 'help' followed by a command name for more
information on commands.

CPLEX> Logfile 'cplex.log' closed.
Logfile 'C:\Users\llavin\Desktop\test826\logs\tmplxe91eug.cplex.log' open.
CPLEX> New value for parallel optimization mode: -1
CPLEX> New value for mixed integer optimality gap tolerance: 0.01
CPLEX> New value for feasibility tolerance: 1e-09
CPLEX> New value for deterministic time limit in ticks: 100000
CPLEX> Problem 'C:\Users\llavin\Desktop\test826\logs\tmp25v0bn2z.pyomo.lp' read.
Read time = 0.55 sec. (28.55 ticks)
CPLEX> Problem name         : C:\Users\llavin\Desktop\test826\logs\tmp25v0bn2z.pyomo.lp
Objective sense      : Maximize
Variables            :  107781  [Nneg: 1,  Box: 44056,  Free: 8928,
                                 Binary: 54796]
Objective nonzeros   :   19009
Linear constraints   :  246901  [Less: 82866,  Greater: 118424,  Equal: 45611]
  Nonzeros           :  619709
  RHS nonzeros       :  136515

Variables            : Min LB: -5000.000        Max UB: 1000000.       
Objective nonzeros   : Min   : 0.1666667        Max   : 208.3333       
Linear constraints   :
  Nonzeros           : Min   : 0.1666667        Max   : 1000000.       
  RHS nonzeros       : Min   : 0.1666667        Max   : 1000000.       
CPLEX> CPXPARAM_Parallel                                -1
CPXPARAM_Simplex_Tolerances_Feasibility          1.0000000000000001e-09
CPXPARAM_DetTimeLimit                            100000
CPXPARAM_MIP_Tolerances_MIPGap                   0.01
Tried aggregator 3 times.
MIP Presolve eliminated 172666 rows and 33959 columns.
MIP Presolve added 7727 rows and 0 columns.
MIP Presolve modified 53991 coefficients.
Aggregator did 26102 substitutions.
Reduced MIP has 55860 rows, 47336 columns, and 182210 nonzeros.
Reduced MIP has 18780 binaries, 0 generals, 0 SOSs, and 0 indicators.
Presolve time = 0.66 sec. (386.72 ticks)
Probing fixed 714 vars, tightened 10845 bounds.
Probing time = 0.45 sec. (17.50 ticks)
Tried aggregator 2 times.
MIP Presolve eliminated 1633 rows and 1456 columns.
MIP Presolve modified 7077 coefficients.
Aggregator did 80 substitutions.
Reduced MIP has 54147 rows, 45800 columns, and 177153 nonzeros.
Reduced MIP has 18061 binaries, 0 generals, 0 SOSs, and 0 indicators.
Presolve time = 0.33 sec. (292.32 ticks)
Probing fixed 5 vars, tightened 410 bounds.
Probing time = 0.63 sec. (22.21 ticks)
Clique table members: 96878.
MIP emphasis: balance optimality and feasibility.
MIP search method: dynamic search.
Parallel mode: opportunistic, using up to 32 threads.
Root relaxation solution time = 1.41 sec. (2406.63 ticks)

        Nodes                                         Cuts/
   Node  Left     Objective  IInf  Best Integer    Best Bound    ItCnt     Gap

      0     0       -0.0000    11                     -0.0000    11077         
      0     0       -0.3665     3                 Flowcuts: 1    11155         
      0     0       -2.9367     2                     Cuts: 6    11158         
*     0+    0                           -0.0000       -2.9367              --- 
      0     0        cutoff             -0.0000       -2.9367    11165     --- 
Elapsed time = 6.16 sec. (5239.77 ticks, tree = 0.01 MB, solutions = 1)

Cover cuts applied:  1
Flow cuts applied:  6
Mixed integer rounding cuts applied:  1

Root node processing (before b&c):
  Real time             =    6.20 sec. (5243.60 ticks)
Parallel b&c, 32 threads:
  Real time             =    0.00 sec. (0.00 ticks)
  Sync time (average)   =    0.00 sec.
  Wait time (average)   =    0.00 sec.
                          ------------
Total (root+branch&cut) =    6.20 sec. (5243.60 ticks)

Solution pool: 1 solution saved.

MIP - Integer optimal solution:  Objective = -4.1762583066e-05
Solution time =    6.22 sec.  Iterations = 11165  Nodes = 0
Deterministic time = 5243.91 ticks  (843.21 ticks/sec)

CPLEX> Incumbent solution written to file 'C:\Users\llavin\Desktop\test826\logs\tmpwmljo8v9.cplex.sol'.
CPLEX> NOTE: no warmstart specified for MIP iteration, default behavior is true
NOTE: resolving with all competitive generators using storage-only solution to warmstart
Solving...

Welcome to IBM(R) ILOG(R) CPLEX(R) Interactive Optimizer 12.9.0.0
  with Simplex, Mixed Integer & Barrier Optimizers
5725-A06 5725-A29 5724-Y48 5724-Y49 5724-Y54 5724-Y55 5655-Y21
Copyright IBM Corp. 1988, 2019.  All Rights Reserved.

Type 'help' for a list of available commands.
Type 'help' followed by a command name for more
information on commands.

CPLEX> Logfile 'cplex.log' closed.
Logfile 'C:\Users\llavin\Desktop\test826\logs\tmps6wdpcuz.cplex.log' open.
CPLEX> New value for parallel optimization mode: -1
CPLEX> New value for mixed integer optimality gap tolerance: 0.01
CPLEX> New value for feasibility tolerance: 1e-09
CPLEX> New value for deterministic time limit in ticks: 100000
CPLEX> Problem 'C:\Users\llavin\Desktop\test826\logs\tmppax692a0.pyomo.lp' read.
Read time = 0.55 sec. (28.60 ticks)
CPLEX> MIP start file 'C:\Users\llavin\Desktop\test826\logs\tmplsl1wkeh.cplex.mst' read.
CPLEX> Problem name         : C:\Users\llavin\Desktop\test826\logs\tmppax692a0.pyomo.lp
Objective sense      : Maximize
Variables            :  109221  [Nneg: 1,  Box: 45496,  Free: 8928,
                                 Binary: 54796]
Objective nonzeros   :   20401
Linear constraints   :  246901  [Less: 82866,  Greater: 118424,  Equal: 45611]
  Nonzeros           :  619709
  RHS nonzeros       :  136515

Variables            : Min LB: -5000.000        Max UB: 1000000.       
Objective nonzeros   : Min   : 0.1666667        Max   : 208.3333       
Linear constraints   :
  Nonzeros           : Min   : 0.1666667        Max   : 1000000.       
  RHS nonzeros       : Min   : 0.1666667        Max   : 1000000.       
CPLEX> CPXPARAM_Parallel                                -1
CPXPARAM_Simplex_Tolerances_Feasibility          1.0000000000000001e-09
CPXPARAM_DetTimeLimit                            100000
CPXPARAM_MIP_Tolerances_MIPGap                   0.01
Warning:  No solution found from 1 MIP starts.
Retaining values of one MIP start for possible repair.
Tried aggregator 3 times.
MIP Presolve eliminated 172666 rows and 35399 columns.
MIP Presolve added 7727 rows and 0 columns.
MIP Presolve modified 53991 coefficients.
Aggregator did 26102 substitutions.
Reduced MIP has 55860 rows, 47336 columns, and 182210 nonzeros.
Reduced MIP has 18780 binaries, 0 generals, 0 SOSs, and 0 indicators.
Presolve time = 0.66 sec. (387.47 ticks)
Probing fixed 714 vars, tightened 10845 bounds.
Probing time = 0.45 sec. (17.50 ticks)
Tried aggregator 2 times.
MIP Presolve eliminated 1633 rows and 1456 columns.
MIP Presolve modified 7077 coefficients.
Aggregator did 80 substitutions.
Reduced MIP has 54147 rows, 45800 columns, and 177153 nonzeros.
Reduced MIP has 18061 binaries, 0 generals, 0 SOSs, and 0 indicators.
Presolve time = 0.33 sec. (292.33 ticks)
Probing fixed 5 vars, tightened 410 bounds.
Probing time = 0.63 sec. (22.21 ticks)
Clique table members: 96878.
MIP emphasis: balance optimality and feasibility.
MIP search method: dynamic search.
Parallel mode: opportunistic, using up to 32 threads.
Root relaxation solution time = 1.72 sec. (2587.12 ticks)

        Nodes                                         Cuts/
   Node  Left     Objective  IInf  Best Integer    Best Bound    ItCnt     Gap

      0     0      964.3896    63                    964.3896    12221         
      0     0      961.4529    15                 Flowcuts: 7    12245         
      0     0      957.9695    20                    Cuts: 15    12294         
      0     0      950.8949    29                     Cuts: 9    12319         
      0     0      945.3611    38                     Cuts: 8    12341         
      0     0      943.9804    38                     Cuts: 9    12349         
      0     0      943.9804    38                 Flowcuts: 2    12350         
Repair heuristic found nothing.
      0    13      401.7575     9                    755.5529    12636         
Elapsed time = 16.70 sec. (11479.05 ticks, tree = 0.02 MB, solutions = 0)
    254   104      259.8921     2                    539.3001    14225         
    451   104      384.0318     5                    539.3001    13929         
    719   396      162.7235     4                    539.3001    17481         
    991   886       73.6181     2                    539.3001    22144         
   1253   949    -1332.1206     3                    539.3001    22931         
   1484  1091      -76.1141     1                    539.3001    25032         
   1707  1076       36.9383     2                    539.3001    24886         
   1932  1606      137.2350     4                    539.3001    31392         
   2156  1633       33.8794     2                    539.3001    31902         
   3071  2385      175.9795     5                    539.3001    42729         
Elapsed time = 39.92 sec. (14587.40 ticks, tree = 30.56 MB, solutions = 0)
   4072  2927       43.1603     3                    539.3001    52047         
   5026  4068    infeasible                          539.3001    87433         
   5833  4267       46.1808     8                    539.3001    93544         
   5949  4889      111.9474     9                    539.3001   123065         
*  6297+  136                        -2531.2126      539.3001           121.31%
   6738   573      -61.2574     3    -2531.2126      539.3001   127196  121.31%
*  6962+  756                        -2109.4737      539.3001           125.57%
   7324   875      121.1191    10    -2109.4737      539.3001   128751  125.57%
   8456  1280       60.8769     3    -2109.4737      539.3001   130218  125.57%
   9699  2411      -78.4011     4    -2109.4737      539.3001   136652  125.57%
  10913  2236      157.8408    13    -2109.4737      539.3001   135189  125.57%
Elapsed time = 119.69 sec. (34449.22 ticks, tree = 28.64 MB, solutions = 2)
  12492  3951      113.5488     3    -2109.4737      539.3001   148193  125.57%
  14118  5717     -214.0590     8    -2109.4737      509.2638   161294  124.14%
  15779  6713     -258.7783     7    -2109.4737      509.2638   167467  124.14%
  17480  8376     -167.7450     6    -2109.4737      505.2303   179409  123.95%
  18983  9033      -99.9222     4    -2109.4737      505.2303   182908  123.95%
  19667  8821      101.5129     8    -2109.4737      505.2303   181903  123.95%
  19678 12629    infeasible          -2109.4737      501.7525   213256  123.79%
  20046    78      157.8408     6    -2109.4737      501.7525   214137  123.79%
  20535    95    -5380.9089    82    -2109.4737      501.7525   214459  123.79%
* 20802+  907                        -1876.0714      501.7525           126.74%
  21064   226      157.8408     8    -1876.0714      501.7525   215311  126.74%
Elapsed time = 202.14 sec. (53713.45 ticks, tree = 2.45 MB, solutions = 3)
  21583   847       92.2834     2    -1876.0714      501.7525   217573  126.74%
  22168  1109      182.1192     8    -1876.0714      501.7525   218395  126.74%
  22805  1246     -133.1855     3    -1876.0714      501.7525   218703  126.74%
  23404  2561      286.8677    14    -1876.0714      501.7525   225904  126.74%
  24031  2419       83.4595     6    -1876.0714      501.7525   225220  126.74%
  24726  5441     -155.2812    11    -1876.0714      501.7525   247328  126.74%
  25474  3264      101.9984     8    -1876.0714      501.7525   229580  126.74%
  26261  5335      178.0565     9    -1876.0714      501.7525   246861  126.74%
  27138  5369       91.9504     2    -1876.0714      408.7792   246424  121.79%
  28249  4904      -34.6069     9    -1876.0714      408.7792   241927  121.79%
Elapsed time = 283.36 sec. (63258.86 ticks, tree = 73.56 MB, solutions = 3)
  29542  5884       -2.9927     4    -1876.0714      394.7638   250146  121.04%
  31016  6366      178.0565     7    -1876.0714      394.7638   252626  121.04%
  32489 12240      102.2651     2    -1876.0714      318.9909   278444  117.00%
  33874  7876      187.0295     9    -1876.0714      318.9909   259680  117.00%
  35284  8338      187.0295     7    -1876.0714      318.9909   261189  117.00%
  36644 10244       14.2231     6    -1876.0714      318.9909   269902  117.00%
  38094 10885      178.0565    10    -1876.0714      318.9909   273211  117.00%
  39507 16016      178.0565    10    -1876.0714      318.9909   295216  117.00%
  40877 13293       90.2983     4    -1876.0714      318.9909   283497  117.00%
  42205 15565       91.6666     3    -1876.0714      318.9909   293567  117.00%
Elapsed time = 345.00 sec. (72805.07 ticks, tree = 258.36 MB, solutions = 3)
  43684 22417      178.0565     9    -1876.0714      286.8677   322351  115.29%
  45247 21637      178.0565    10    -1876.0714      286.8677   319476  115.29%
  46862 19820      178.0565     8    -1876.0714      286.8677   311278  115.29%
  48571 25304      178.0565    10    -1876.0714      286.8677   332447  115.29%
  50258 20307      178.0565    10    -1876.0714      286.8677   313360  115.29%
  52012 23176      -61.7328     6    -1876.0714      286.8677   325196  115.29%
  53717 29000       85.3397     3    -1876.0714      286.8677   344404  115.29%
  55439 26839      121.0743     4    -1876.0714      286.8677   337153  115.29%
  57111 27445       88.9300     3    -1876.0714      286.8677   339203  115.29%
  58694 25721      178.0565    10    -1876.0714      286.8677   333788  115.29%
Elapsed time = 404.98 sec. (82347.75 ticks, tree = 435.15 MB, solutions = 3)
  60197 26994       93.0619     4    -1876.0714      286.8677   337891  115.29%
  61532 28017     -478.9375     8    -1876.0714      286.8677   341830  115.29%
  62924 30353      178.0565    10    -1876.0714      286.8677   349175  115.29%
  64303 33255      121.0743     4    -1876.0714      286.8677   359429  115.29%
  65718 36616      178.0565    10    -1876.0714      286.8677   372724  115.29%
  67279 36067      188.6859     9    -1876.0714      286.8677   370611  115.29%
  68878 36050      -59.5599     7    -1876.0714      286.8677   370344  115.29%
  70609 36788       93.0619     3    -1876.0714      286.8677   372924  115.29%
  72325 47756      104.5859     3    -1876.0714      286.8677   418923  115.29%
  74086 40215      188.6859     7    -1876.0714      286.8677   387767  115.29%
Elapsed time = 456.20 sec. (91888.26 ticks, tree = 687.68 MB, solutions = 3)
  75771 41760       93.0619     4    -1876.0714      286.8677   394877  115.29%
  77481 43437      106.3176     2    -1876.0714      286.8677   400381  115.29%
  78944 49493      170.8146     8    -1876.0714      286.8677   425482  115.29%
  80371 46675      159.2473     8    -1876.0714      286.8677   414673  115.29%
  81609 49202      -54.6353     7    -1876.0714      286.8677   424473  115.29%
  82635 47394      159.2473     9    -1876.0714      286.8677   417690  115.29%
  83519 50050      150.0440     9    -1876.0714      286.8677   428155  115.29%
  83901 51142        cutoff          -1876.0714      286.8677   433265  115.29%

Cover cuts applied:  7
Flow cuts applied:  32
Mixed integer rounding cuts applied:  4
Zero-half cuts applied:  1
Gomory fractional cuts applied:  3

Root node processing (before b&c):
  Real time             =   13.53 sec. (11352.34 ticks)
Parallel b&c, 32 threads:
  Real time             =  449.61 sec. (88672.21 ticks)
  Sync time (average)   =    4.56 sec.
  Wait time (average)   =    0.76 sec.
                          ------------
Total (root+branch&cut) =  463.14 sec. (100024.55 ticks)

Solution pool: 3 solutions saved.

MIP - Deterministic time limit exceeded, integer feasible:  Objective = -1.8760714161e+03
Current MIP best bound =  2.7623822116e+02 (gap = 2152.31, 114.72%)
Solution time =  463.19 sec.  Iterations = 474374  Nodes = 84064 (61097)
Deterministic time = 100024.86 ticks  (215.95 ticks/sec)

CPLEX> Incumbent solution written to file 'C:\Users\llavin\Desktop\test826\logs\tmpbkllq86h.cplex.sol'.
CPLEX> Exporting results... 
